certificates/rado_a5_c259_N51.cnf
c Rad2 upper bound instance: x1 + 5*x2 - x3 = 259, interval [1,51]
p cnf 51 490
1 5 51 0
-1 -5 -51 0
2 6 51 0
-2 -6 -51 0
3 7 51 0
-3 -7 -51 0
4 8 51 0
-4 -8 -51 0
5 9 51 0
-5 -9 -51 0
1 10 50 0
-1 -10 -50 0
6 10 51 0
-6 -10 -51 0
2 11 50 0
-2 -11 -50 0
7 11 51 0
-7 -11 -51 0
3 12 50 0
-3 -12 -50 0
8 12 51 0
-8 -12 -51 0
4 13 50 0
-4 -13 -50 0
9 13 51 0
-9 -13 -51 0
5 14 50 0
-5 -14 -50 0
10 14 51 0
-10 -14 -51 0
1 15 49 0
-1 -15 -49 0
6 15 50 0
-6 -15 -50 0
11 15 51 0
-11 -15 -51 0
2 16 49 0
-2 -16 -49 0
7 16 50 0
-7 -16 -50 0
12 16 51 0
-12 -16 -51 0
3 17 49 0
-3 -17 -49 0
8 17 50 0
-8 -17 -50 0
13 17 51 0
-13 -17 -51 0
4 18 49 0
-4 -18 -49 0
9 18 50 0
-9 -18 -50 0
14 18 51 0
-14 -18 -51 0
5 19 49 0
-5 -19 -49 0
10 19 50 0
-10 -19 -50 0
15 19 51 0
-15 -19 -51 0
1 20 48 0
-1 -20 -48 0
6 20 49 0
-6 -20 -49 0
11 20 50 0
-11 -20 -50 0
16 20 51 0
-16 -20 -51 0
2 21 48 0
-2 -21 -48 0
7 21 49 0
-7 -21 -49 0
12 21 50 0
-12 -21 -50 0
17 21 51 0
-17 -21 -51 0
3 22 48 0
-3 -22 -48 0
8 22 49 0
-8 -22 -49 0
13 22 50 0
-13 -22 -50 0
18 22 51 0
-18 -22 -51 0
4 23 48 0
-4 -23 -48 0
9 23 49 0
-9 -23 -49 0
14 23 50 0
-14 -23 -50 0
19 23 51 0
-19 -23 -51 0
5 24 48 0
-5 -24 -48 0
10 24 49 0
-10 -24 -49 0
15 24 50 0
-15 -24 -50 0
20 24 51 0
-20 -24 -51 0
1 25 47 0
-1 -25 -47 0
6 25 48 0
-6 -25 -48 0
11 25 49 0
-11 -25 -49 0
16 25 50 0
-16 -25 -50 0
21 25 51 0
-21 -25 -51 0
2 26 47 0
-2 -26 -47 0
7 26 48 0
-7 -26 -48 0
12 26 49 0
-12 -26 -49 0
17 26 50 0
-17 -26 -50 0
22 26 51 0
-22 -26 -51 0
3 27 47 0
-3 -27 -47 0
8 27 48 0
-8 -27 -48 0
13 27 49 0
-13 -27 -49 0
18 27 50 0
-18 -27 -50 0
23 27 51 0
-23 -27 -51 0
4 28 47 0
-4 -28 -47 0
9 28 48 0
-9 -28 -48 0
14 28 49 0
-14 -28 -49 0
19 28 50 0
-19 -28 -50 0
24 28 51 0
-24 -28 -51 0
5 29 47 0
-5 -29 -47 0
10 29 48 0
-10 -29 -48 0
15 29 49 0
-15 -29 -49 0
20 29 50 0
-20 -29 -50 0
25 29 51 0
-25 -29 -51 0
1 30 46 0
-1 -30 -46 0
6 30 47 0
-6 -30 -47 0
11 30 48 0
-11 -30 -48 0
16 30 49 0
-16 -30 -49 0
21 30 50 0
-21 -30 -50 0
26 30 51 0
-26 -30 -51 0
2 31 46 0
-2 -31 -46 0
7 31 47 0
-7 -31 -47 0
12 31 48 0
-12 -31 -48 0
17 31 49 0
-17 -31 -49 0
22 31 50 0
-22 -31 -50 0
27 31 51 0
-27 -31 -51 0
3 32 46 0
-3 -32 -46 0
8 32 47 0
-8 -32 -47 0
13 32 48 0
-13 -32 -48 0
18 32 49 0
-18 -32 -49 0
23 32 50 0
-23 -32 -50 0
28 32 51 0
-28 -32 -51 0
4 33 46 0
-4 -33 -46 0
9 33 47 0
-9 -33 -47 0
14 33 48 0
-14 -33 -48 0
19 33 49 0
-19 -33 -49 0
24 33 50 0
-24 -33 -50 0
29 33 51 0
-29 -33 -51 0
5 34 46 0
-5 -34 -46 0
10 34 47 0
-10 -34 -47 0
15 34 48 0
-15 -34 -48 0
20 34 49 0
-20 -34 -49 0
25 34 50 0
-25 -34 -50 0
30 34 51 0
-30 -34 -51 0
1 35 45 0
-1 -35 -45 0
6 35 46 0
-6 -35 -46 0
11 35 47 0
-11 -35 -47 0
16 35 48 0
-16 -35 -48 0
21 35 49 0
-21 -35 -49 0
26 35 50 0
-26 -35 -50 0
31 35 51 0
-31 -35 -51 0
2 36 45 0
-2 -36 -45 0
7 36 46 0
-7 -36 -46 0
12 36 47 0
-12 -36 -47 0
17 36 48 0
-17 -36 -48 0
22 36 49 0
-22 -36 -49 0
27 36 50 0
-27 -36 -50 0
32 36 51 0
-32 -36 -51 0
3 37 45 0
-3 -37 -45 0
8 37 46 0
-8 -37 -46 0
13 37 47 0
-13 -37 -47 0
18 37 48 0
-18 -37 -48 0
23 37 49 0
-23 -37 -49 0
28 37 50 0
-28 -37 -50 0
33 37 51 0
-33 -37 -51 0
4 38 45 0
-4 -38 -45 0
9 38 46 0
-9 -38 -46 0
14 38 47 0
-14 -38 -47 0
19 38 48 0
-19 -38 -48 0
24 38 49 0
-24 -38 -49 0
29 38 50 0
-29 -38 -50 0
34 38 51 0
-34 -38 -51 0
5 39 45 0
-5 -39 -45 0
10 39 46 0
-10 -39 -46 0
15 39 47 0
-15 -39 -47 0
20 39 48 0
-20 -39 -48 0
25 39 49 0
-25 -39 -49 0
30 39 50 0
-30 -39 -50 0
35 39 51 0
-35 -39 -51 0
1 40 44 0
-1 -40 -44 0
6 40 45 0
-6 -40 -45 0
11 40 46 0
-11 -40 -46 0
16 40 47 0
-16 -40 -47 0
21 40 48 0
-21 -40 -48 0
26 40 49 0
-26 -40 -49 0
31 40 50 0
-31 -40 -50 0
36 40 51 0
-36 -40 -51 0
2 41 44 0
-2 -41 -44 0
7 41 45 0
-7 -41 -45 0
12 41 46 0
-12 -41 -46 0
17 41 47 0
-17 -41 -47 0
22 41 48 0
-22 -41 -48 0
27 41 49 0
-27 -41 -49 0
32 41 50 0
-32 -41 -50 0
37 41 51 0
-37 -41 -51 0
3 42 44 0
-3 -42 -44 0
8 42 45 0
-8 -42 -45 0
13 42 46 0
-13 -42 -46 0
18 42 47 0
-18 -42 -47 0
23 42 48 0
-23 -42 -48 0
28 42 49 0
-28 -42 -49 0
33 42 50 0
-33 -42 -50 0
38 42 51 0
-38 -42 -51 0
4 43 44 0
-4 -43 -44 0
9 43 45 0
-9 -43 -45 0
14 43 46 0
-14 -43 -46 0
19 43 47 0
-19 -43 -47 0
24 43 48 0
-24 -43 -48 0
29 43 49 0
-29 -43 -49 0
34 43 50 0
-34 -43 -50 0
39 43 51 0
-39 -43 -51 0
5 44 0
-5 -44 0
10 44 45 0
-10 -44 -45 0
15 44 46 0
-15 -44 -46 0
20 44 47 0
-20 -44 -47 0
25 44 48 0
-25 -44 -48 0
30 44 49 0
-30 -44 -49 0
35 44 50 0
-35 -44 -50 0
40 44 51 0
-40 -44 -51 0
1 43 45 0
-1 -43 -45 0
6 44 45 0
-6 -44 -45 0
11 45 0
-11 -45 0
16 45 46 0
-16 -45 -46 0
21 45 47 0
-21 -45 -47 0
26 45 48 0
-26 -45 -48 0
31 45 49 0
-31 -45 -49 0
36 45 50 0
-36 -45 -50 0
41 45 51 0
-41 -45 -51 0
2 43 46 0
-2 -43 -46 0
7 44 46 0
-7 -44 -46 0
12 45 46 0
-12 -45 -46 0
17 46 0
-17 -46 0
22 46 47 0
-22 -46 -47 0
27 46 48 0
-27 -46 -48 0
32 46 49 0
-32 -46 -49 0
37 46 50 0
-37 -46 -50 0
42 46 51 0
-42 -46 -51 0
3 43 47 0
-3 -43 -47 0
8 44 47 0
-8 -44 -47 0
13 45 47 0
-13 -45 -47 0
18 46 47 0
-18 -46 -47 0
23 47 0
-23 -47 0
28 47 48 0
-28 -47 -48 0
33 47 49 0
-33 -47 -49 0
38 47 50 0
-38 -47 -50 0
43 47 51 0
-43 -47 -51 0
4 43 48 0
-4 -43 -48 0
9 44 48 0
-9 -44 -48 0
14 45 48 0
-14 -45 -48 0
19 46 48 0
-19 -46 -48 0
24 47 48 0
-24 -47 -48 0
29 48 0
-29 -48 0
34 48 49 0
-34 -48 -49 0
39 48 50 0
-39 -48 -50 0
44 48 51 0
-44 -48 -51 0
5 43 49 0
-5 -43 -49 0
10 44 49 0
-10 -44 -49 0
15 45 49 0
-15 -45 -49 0
20 46 49 0
-20 -46 -49 0
25 47 49 0
-25 -47 -49 0
30 48 49 0
-30 -48 -49 0
35 49 0
-35 -49 0
40 49 50 0
-40 -49 -50 0
45 49 51 0
-45 -49 -51 0
1 42 50 0
-1 -42 -50 0
6 43 50 0
-6 -43 -50 0
11 44 50 0
-11 -44 -50 0
16 45 50 0
-16 -45 -50 0
21 46 50 0
-21 -46 -50 0
26 47 50 0
-26 -47 -50 0
31 48 50 0
-31 -48 -50 0
36 49 50 0
-36 -49 -50 0
41 50 0
-41 -50 0
46 50 51 0
-46 -50 -51 0
2 42 51 0
-2 -42 -51 0
7 43 51 0
-7 -43 -51 0
12 44 51 0
-12 -44 -51 0
17 45 51 0
-17 -45 -51 0
22 46 51 0
-22 -46 -51 0
27 47 51 0
-27 -47 -51 0
32 48 51 0
-32 -48 -51 0
37 49 51 0
-37 -49 -51 0
42 50 51 0
-42 -50 -51 0
47 51 0
-47 -51 0
