certificates/rado_a5_c259_N51.drat
-51 0
47 0
-23 0
19 0
27 0
-43 0
-3 0
39 0
7 0
-15 0
-31 0
11 0
35 0
0
